50
100
99
95
93
92
91
89
89
88
88
85
84
84
84
80
80
79
77
76
72
69
65
64
64
63
63
60
56
56
53
53
52
51
50
50
49
49
47
44
41
41
40
40
40
35
35
34
32
31
31
30
